p cnf 999 729
137 0
164 0
185 0
219 0
267 0
286 0
298 0
318 0
324 0
349 0
365 0
391 0
499 0
521 0
632 0
641 0
663 0
697 0
723 0
738 0
787 0
856 0
914 0
929 0
978 0
-131 0
-132 0
-133 0
-134 0
-135 0
-136 0
-138 0
-139 0
-161 0
-162 0
-163 0
-165 0
-166 0
-167 0
-168 0
-169 0
-181 0
-182 0
-183 0
-184 0
-186 0
-187 0
-188 0
-189 0
-211 0
-212 0
-213 0
-214 0
-215 0
-216 0
-217 0
-218 0
-261 0
-262 0
-263 0
-264 0
-265 0
-266 0
-268 0
-269 0
-281 0
-282 0
-283 0
-284 0
-285 0
-287 0
-288 0
-289 0
-291 0
-292 0
-293 0
-294 0
-295 0
-296 0
-297 0
-299 0
-311 0
-312 0
-313 0
-314 0
-315 0
-316 0
-317 0
-319 0
-321 0
-322 0
-323 0
-325 0
-326 0
-327 0
-328 0
-329 0
-341 0
-342 0
-343 0
-344 0
-345 0
-346 0
-347 0
-348 0
-361 0
-362 0
-363 0
-364 0
-366 0
-367 0
-368 0
-369 0
-392 0
-393 0
-394 0
-395 0
-396 0
-397 0
-398 0
-399 0
-491 0
-492 0
-493 0
-494 0
-495 0
-496 0
-497 0
-498 0
-522 0
-523 0
-524 0
-525 0
-526 0
-527 0
-528 0
-529 0
-631 0
-633 0
-634 0
-635 0
-636 0
-637 0
-638 0
-639 0
-642 0
-643 0
-644 0
-645 0
-646 0
-647 0
-648 0
-649 0
-661 0
-662 0
-664 0
-665 0
-666 0
-667 0
-668 0
-669 0
-691 0
-692 0
-693 0
-694 0
-695 0
-696 0
-698 0
-699 0
-721 0
-722 0
-724 0
-725 0
-726 0
-727 0
-728 0
-729 0
-731 0
-732 0
-733 0
-734 0
-735 0
-736 0
-737 0
-739 0
-781 0
-782 0
-783 0
-784 0
-785 0
-786 0
-788 0
-789 0
-851 0
-852 0
-853 0
-854 0
-855 0
-857 0
-858 0
-859 0
-911 0
-912 0
-913 0
-915 0
-916 0
-917 0
-918 0
-919 0
-921 0
-922 0
-923 0
-924 0
-925 0
-926 0
-927 0
-928 0
-971 0
-972 0
-973 0
-974 0
-975 0
-976 0
-977 0
-979 0
-114 0
-124 0
-224 0
-234 0
-334 0
-117 0
-127 0
-227 0
-237 0
-337 0
-118 0
-128 0
-228 0
-238 0
-338 0
-119 0
-129 0
-229 0
-239 0
-339 0
-144 0
-154 0
-244 0
-254 0
-354 0
-145 0
-155 0
-245 0
-255 0
-355 0
-147 0
-157 0
-247 0
-257 0
-357 0
-149 0
-159 0
-249 0
-259 0
-359 0
-171 0
-191 0
-271 0
-371 0
-381 0
-175 0
-195 0
-275 0
-375 0
-385 0
-176 0
-196 0
-276 0
-376 0
-386 0
-178 0
-198 0
-278 0
-378 0
-388 0
-411 0
-421 0
-431 0
-511 0
-531 0
-611 0
-621 0
-412 0
-422 0
-432 0
-512 0
-532 0
-612 0
-622 0
-441 0
-451 0
-461 0
-541 0
-551 0
-561 0
-651 0
-443 0
-453 0
-463 0
-543 0
-553 0
-563 0
-653 0
-477 0
-487 0
-577 0
-587 0
-597 0
-677 0
-687 0
-479 0
-489 0
-579 0
-589 0
-599 0
-679 0
-689 0
-713 0
-813 0
-823 0
-833 0
-933 0
-714 0
-814 0
-824 0
-834 0
-934 0
-718 0
-818 0
-828 0
-838 0
-938 0
-719 0
-819 0
-829 0
-839 0
-939 0
-746 0
-756 0
-766 0
-846 0
-866 0
-946 0
-956 0
-966 0
-777 0
-797 0
-877 0
-887 0
-897 0
-987 0
-997 0
-778 0
-798 0
-878 0
-888 0
-898 0
-988 0
-998 0
-174 0
-194 0
-115 0
-125 0
-177 0
-197 0
-226 0
-236 0
-246 0
-256 0
-277 0
-248 0
-258 0
-279 0
-331 0
-351 0
-374 0
-384 0
-335 0
-358 0
-379 0
-389 0
-419 0
-429 0
-439 0
-449 0
-459 0
-469 0
-571 0
-581 0
-591 0
-671 0
-681 0
-652 0
-672 0
-682 0
-613 0
-623 0
-673 0
-683 0
-617 0
-627 0
-657 0
-743 0
-753 0
-763 0
-773 0
-793 0
-717 0
-747 0
-757 0
-767 0
-748 0
-758 0
-768 0
-816 0
-826 0
-836 0
-876 0
-886 0
-896 0
-944 0
-954 0
-964 0
-984 0
-994 0
-948 0
-958 0
-968 0
-949 0
-959 0
-969 0
-989 0
-999 0
-414 0
-514 0
-614 0
-418 0
-518 0
-618 0
-519 0
-619 0
-121 0
-221 0
-821 0
-123 0
-223 0
-423 0
-424 0
-624 0
-629 0
-232 0
-332 0
-832 0
-932 0
-437 0
-537 0
-837 0
-937 0
-438 0
-538 0
-141 0
-241 0
-741 0
-841 0
-941 0
-549 0
-749 0
-849 0
-156 0
-356 0
-456 0
-556 0
-656 0
-863 0
-963 0
-464 0
-564 0
-764 0
-864 0
-465 0
-565 0
-765 0
-865 0
-965 0
-467 0
-567 0
-867 0
-967 0
-478 0
-578 0
-678 0
-485 0
-585 0
-685 0
-885 0
-985 0
-486 0
-586 0
-686 0
-986 0
-387 0
-791 0
-891 0
-991 0
-598 0
-199 0
-799 0
-899 0
146 0
274 0
377 0
179 0
539 0
336 0
659 0
889 0
-142 0
-143 0
-148 0
-172 0
-173 0
-272 0
-273 0
-333 0
-372 0
-373 0
-533 0
-534 0
-535 0
-536 0
-654 0
-655 0
-658 0
-881 0
-882 0
-883 0
-884 0
-116 0
-126 0
-559 0
-569 0
-779 0
-879 0
-869 0
-436 0
-936 0
-446 0
-546 0
-759 0
-474 0
-574 0
-674 0
-774 0
-874 0
122 0
158 0
434 0
716 0
769 0
684 0
996 0
-151 0
-152 0
-153 0
-433 0
-435 0
-688 0
-711 0
-712 0
-715 0
-761 0
-762 0
-992 0
-993 0
-995 0
-112 0
-222 0
-484 0
-584 0
-594 0
-776 0
-796 0
-192 0
-444 0
-454 0
-416 0
-516 0
-616 0
-822 0
-458 0
-558 0
-596 0
193 0
225 0
615 0
251 0
382 0
812 0
111 0
628 0
233 0
-113 0
-231 0
-235 0
-252 0
-253 0
-383 0
-625 0
-626 0
-811 0
-815 0
-817 0
-415 0
-425 0
-515 0
-428 0
-243 0
-352 0
-675 0
-842 0
-862 0
-872 0
-892 0
-825 0
-751 0
-951 0
-482 0
-582 0
-982 0
-593 0
-893 0
242 0
353 0
676 0
827 0
426 0
771 0
-427 0
-772 0
-775 0
-476 0
-576 0
-871 0
-981 0
-466 0
-847 0
-442 0
-542 0
-742 0
-942 0
-953 0
-471 0
983 0
566 0
481 0
792 0
-483 0
-488 0
-562 0
-568 0
-794 0
-795 0
-873 0
-752 0
-943 0
-583 0
-592 0
588 0
595 0
875 0
843 0
894 0
-844 0
-845 0
-848 0
-895 0
-475 0
-575 0
-545 0
-555 0
-548 0
-835 0
831 0
935 0
868 0
448 0
-445 0
-447 0
-861 0
-931 0
-468 0
-945 0
-955 0
462 0
947 0
455 0
961 0
745 0
-452 0
-457 0
-744 0
-962 0
-552 0
-755 0
-957 0
-472 0
-547 0
473 0
544 0
754 0
952 0
557 0
572 0
417 0
-413 0
-554 0
-573 0
-517 0
513 0